354579.0
3605
0 1 2 3 4 5 6 8 9 10 11 14 15 16 17 18 19 21 22 23 24 25 26 29 30 31 32 33 34 35 36 38 39 41 42 44 46 47 48 49 50 51 52 53 54 59 60 61 62 65 66 68 69 72 73 74 75 76 77 79 80 81 82 83 84 85 86 87 88 89 91 92 93 95 97 98 99 100 101 102 103 104 105 106 107 109 110 111 112 113 114 115 116 122 123 124 125 126 127 128 130 131 133 135 136 137 138 139 140 141 144 145 146 147 148 149 153 154 155 157 160 161 162 164 166 169 172 175 176 177 180 181 182 183 184 189 190 191 192 193 194 195 196 197 198 